966
684
155
291
429
1033
684
245
257
987
301
770
455
898
579
915
948
221
127
1026
921
535
645
689
772
725
369
439
689
1067
525
614
597
334
1015
1052
227
905
1007
579
727
359
959
343
127
329
883
220
826
429
